c defined variables: 13 25 29 33 37 41 45 49 53 57 61 65 69 73 77 81 85 89 93 97 101 105 109 113 126 136 140 144 148 157 161 165 169 173 181 185 189 200 204 208 212 220 225 226 231 232 237 238 243 255 256 258 261 263 264 266 267 268 269 277 278 280 281 282 284 285 288 293 294 296 297 298 306 317 318 320 321 322 324 325 327 328 329 330 332 333 335 336 337 339 340 342 343 344 345 346 348 349 351 353 355 356 358 359 360 361 363 364 366 367 368 370 371 373 374 375 376 377 378 381 382 383 384 385 386 387 388 389 390 391 392 393 394 395 396 397 398 399 400 401 402 403 404 405 406 407 408 409 410 411 412 413 414 415 416 417 418 419 420 421 422 423 424 425 426 427 428 429 430 431 432 434 435 436 437 438 439 440 441 442 443 444 445 446 447 448 449 450 451 452 453 454 455 456 457 458 459 460 461 462 463 464 465 466 467 468 469 471 472 473 474 475 476 477 479 
p cnf 1616 1962
a 246 241 235 229 68 72 56 64 48 60 40 52 32 44 295 433 275 350 354 357 362 365 369 372 292 291 272 301 312 276 265 254 236 262 257 242 305 230 224 20 36 4 8 24 16 1 28 12 470 5 279 283 21 2 9 17 253 304 309 184 188 172 164 180 176 160 151 168 156 341 347 319 323 316 334 338 326 331 199 207 192 195 215 219 203 211 249 223 104 96 100 92 88 84 76 80 112 108 122 135 129 132 116 139 125 119 147 143 0
e 3 6 7 10 11 14 15 18 19 22 23 26 27 30 31 34 35 38 39 42 43 46 47 50 51 54 55 58 59 62 63 66 67 70 71 74 75 78 79 82 83 86 87 90 91 94 95 98 99 102 103 106 107 110 111 114 115 117 118 120 121 123 124 127 128 130 131 133 134 137 138 141 142 145 146 149 150 153 154 155 158 159 162 163 166 167 170 171 174 175 177 178 179 182 183 186 187 190 191 193 194 196 197 198 201 202 205 206 209 210 213 214 216 217 218 221 222 227 228 233 234 239 240 244 245 247 248 251 252 260 270 271 273 274 287 289 290 299 300 302 303 307 308 310 311 314 315 352 380 478 13 25 29 33 37 41 45 49 53 57 61 65 69 73 77 81 85 89 93 97 101 105 109 113 126 136 140 144 148 157 161 165 169 173 181 185 189 200 204 208 212 220 225 226 231 232 237 238 243 255 256 258 261 263 264 266 267 268 269 277 278 280 281 282 284 285 288 293 294 296 297 298 306 317 318 320 321 322 324 325 327 328 329 330 332 333 335 336 337 339 340 342 343 344 345 346 348 349 351 353 355 356 358 359 360 361 363 364 366 367 368 370 371 373 374 375 376 377 378 381 382 383 384 385 386 387 388 389 390 391 392 393 394 395 396 397 398 399 400 401 402 403 404 405 406 407 408 409 410 411 412 413 414 415 416 417 418 419 420 421 422 423 424 425 426 427 428 429 430 431 432 434 435 436 437 438 439 440 441 442 443 444 445 446 447 448 449 450 451 452 453 454 455 456 457 458 459 460 461 462 463 464 465 466 467 468 469 471 472 473 474 475 476 477 479 1418 1419 1420 1421 1422 1423 1424 1425 1426 1427 1428 1429 1430 1431 1432 1433 1434 1435 1436 1437 1438 1439 1440 1441 1442 1443 1444 1445 1446 1447 1448 1449 1450 1451 1452 1453 1454 1455 1456 1457 1458 1459 1460 1461 1462 1463 1464 1465 1466 1467 1468 1469 1470 1471 1472 1473 1474 1475 1476 1477 1478 1479 1480 1481 1482 1483 1484 1485 1486 1487 1488 1489 1490 1491 1492 1493 1494 1495 1496 1497 1498 1499 1500 1501 1502 1503 1504 1505 1506 1507 1508 1509 1510 1511 1512 1513 1514 1515 1516 1517 1518 1519 1520 1521 1522 1523 1524 1525 1526 1527 1528 1529 1530 1531 1532 1533 1534 1535 1536 1537 1538 1539 1540 1541 1542 1543 1544 1545 1546 1547 1548 1549 1550 1551 1552 1553 1554 1555 1556 1557 1558 1559 1560 1561 1562 1563 1564 1565 1566 1567 1568 1569 1570 1571 1572 1573 1574 1575 1576 1577 1578 1579 1580 1581 1582 1583 1584 1585 1586 1587 1588 1589 1590 1591 1592 1593 1594 1595 1596 1597 1598 1599 1600 1601 1602 1603 1604 1605 1606 1607 1608 1609 1610 1611 1612 1613 1614 1615 1616 0
d 152 5 9 0
d 379 249 312 291 275 253 0
d 259 5 192 21 9 0
d 286 470 5 2 9 272 0
d 250 246 241 235 223 229 0
d 313 304 309 301 2 433 0
1419 -13 0
-1419 13 0
1420 -25 0
-1420 25 0
1421 -29 0
-1421 29 0
1422 -33 0
-1422 33 0
1423 -37 0
-1423 37 0
1424 -41 0
-1424 41 0
1425 -45 0
-1425 45 0
1426 -49 0
-1426 49 0
1427 -53 0
-1427 53 0
1428 -57 0
-1428 57 0
1429 -61 0
-1429 61 0
1430 -65 0
-1430 65 0
1431 -69 0
-1431 69 0
1432 -73 0
-1432 73 0
1433 -77 0
-1433 77 0
1434 -81 0
-1434 81 0
1435 -85 0
-1435 85 0
1436 -89 0
-1436 89 0
1437 -93 0
-1437 93 0
1438 -97 0
-1438 97 0
1439 -101 0
-1439 101 0
1440 -105 0
-1440 105 0
1441 -109 0
-1441 109 0
1442 -113 0
-1442 113 0
1443 -126 0
-1443 126 0
1444 -136 0
-1444 136 0
1445 -140 0
-1445 140 0
1446 -144 0
-1446 144 0
1447 -148 0
-1447 148 0
1426 -157 0
-1426 157 0
1448 -161 0
-1448 161 0
1449 -165 0
-1449 165 0
1450 -169 0
-1450 169 0
1451 -173 0
-1451 173 0
1452 -181 0
-1452 181 0
1453 -185 0
-1453 185 0
1454 -189 0
-1454 189 0
1455 -200 0
-1455 200 0
1438 -204 0
-1438 204 0
1456 -208 0
-1456 208 0
1457 -212 0
-1457 212 0
1458 -220 0
-1458 220 0
1459 -225 0
-1459 225 0
1460 -226 0
-1460 226 0
1461 -231 0
-1461 231 0
1462 -232 0
-1462 232 0
1463 -237 0
-1463 237 0
1464 -238 0
-1464 238 0
1465 -243 0
-1465 243 0
1466 -255 0
-1466 255 0
1467 -256 0
-1467 256 0
1468 -258 0
-1468 258 0
-1469 -261 0
1469 261 0
1470 -263 0
-1470 263 0
1471 -264 0
-1471 264 0
1472 -266 0
-1472 266 0
1473 -267 0
-1473 267 0
-1474 -268 0
1474 268 0
-1475 -269 0
1475 269 0
1476 -277 0
-1476 277 0
1477 -278 0
-1477 278 0
1478 -280 0
-1478 280 0
1479 -281 0
-1479 281 0
-1480 -282 0
1480 282 0
1481 -284 0
-1481 284 0
1482 -285 0
-1482 285 0
-1483 -288 0
1483 288 0
1484 -293 0
-1484 293 0
1485 -294 0
-1485 294 0
1486 -296 0
-1486 296 0
1487 -297 0
-1487 297 0
-1488 -298 0
1488 298 0
1489 -306 0
-1489 306 0
1490 -317 0
-1490 317 0
1491 -318 0
-1491 318 0
1492 -320 0
-1492 320 0
1493 -321 0
-1493 321 0
-1494 -322 0
1494 322 0
1495 -324 0
-1495 324 0
1496 -325 0
-1496 325 0
1497 -327 0
-1497 327 0
1498 -328 0
-1498 328 0
-1499 -329 0
1499 329 0
-1500 -330 0
1500 330 0
1501 -332 0
-1501 332 0
1502 -333 0
-1502 333 0
1503 -335 0
-1503 335 0
1504 -336 0
-1504 336 0
-1505 -337 0
1505 337 0
1506 -339 0
-1506 339 0
1507 -340 0
-1507 340 0
1508 -342 0
-1508 342 0
1509 -343 0
-1509 343 0
-1510 -344 0
1510 344 0
-1511 -345 0
1511 345 0
-1512 -346 0
1512 346 0
1513 -348 0
-1513 348 0
1514 -349 0
-1514 349 0
1515 -351 0
-1515 351 0
-1516 -353 0
1516 353 0
1517 -355 0
-1517 355 0
1518 -356 0
-1518 356 0
1519 -358 0
-1519 358 0
1520 -359 0
-1520 359 0
-1521 -360 0
1521 360 0
-1522 -361 0
1522 361 0
1523 -363 0
-1523 363 0
1524 -364 0
-1524 364 0
1525 -366 0
-1525 366 0
1526 -367 0
-1526 367 0
-1527 -368 0
1527 368 0
1528 -370 0
-1528 370 0
1529 -371 0
-1529 371 0
1530 -373 0
-1530 373 0
1531 -374 0
-1531 374 0
-1532 -375 0
1532 375 0
-1533 -376 0
1533 376 0
-1534 -377 0
1534 377 0
-1535 -378 0
1535 378 0
1536 -381 0
-1536 381 0
1537 -382 0
-1537 382 0
1538 -383 0
-1538 383 0
1539 -384 0
-1539 384 0
-1540 -385 0
1540 385 0
1541 -386 0
-1541 386 0
1542 -387 0
-1542 387 0
1543 -388 0
-1543 388 0
1544 -389 0
-1544 389 0
-1545 -390 0
1545 390 0
-1546 -391 0
1546 391 0
1547 -392 0
-1547 392 0
1548 -393 0
-1548 393 0
1549 -394 0
-1549 394 0
1550 -395 0
-1550 395 0
-1551 -396 0
1551 396 0
1552 -397 0
-1552 397 0
1553 -398 0
-1553 398 0
1554 -399 0
-1554 399 0
1555 -400 0
-1555 400 0
-1556 -401 0
1556 401 0
-1557 -402 0
1557 402 0
-1558 -403 0
1558 403 0
1559 -404 0
-1559 404 0
1560 -405 0
-1560 405 0
1561 -406 0
-1561 406 0
1562 -407 0
-1562 407 0
-1563 -408 0
1563 408 0
1564 -409 0
-1564 409 0
1565 -410 0
-1565 410 0
1566 -411 0
-1566 411 0
1567 -412 0
-1567 412 0
-1568 -413 0
1568 413 0
-1569 -414 0
1569 414 0
1570 -415 0
-1570 415 0
1571 -416 0
-1571 416 0
1572 -417 0
-1572 417 0
1573 -418 0
-1573 418 0
-1574 -419 0
1574 419 0
1575 -420 0
-1575 420 0
1576 -421 0
-1576 421 0
1577 -422 0
-1577 422 0
1578 -423 0
-1578 423 0
-1579 -424 0
1579 424 0
-1580 -425 0
1580 425 0
-1581 -426 0
1581 426 0
-1582 -427 0
1582 427 0
1484 -428 0
-1484 428 0
1583 -429 0
-1583 429 0
1486 -430 0
-1486 430 0
1584 -431 0
-1584 431 0
-1585 -432 0
1585 432 0
1586 -434 0
-1586 434 0
1587 -435 0
-1587 435 0
1489 -436 0
-1489 436 0
1588 -437 0
-1588 437 0
-1589 -438 0
1589 438 0
-1590 -439 0
1590 439 0
1465 -440 0
-1465 440 0
1591 -441 0
-1591 441 0
1459 -442 0
-1459 442 0
1592 -443 0
-1592 443 0
-1593 -444 0
1593 444 0
1461 -445 0
-1461 445 0
1594 -446 0
-1594 446 0
1463 -447 0
-1463 447 0
1595 -448 0
-1595 448 0
-1596 -449 0
1596 449 0
-1597 -450 0
1597 450 0
-1598 -451 0
1598 451 0
1466 -452 0
-1466 452 0
1599 -453 0
-1599 453 0
1468 -454 0
-1468 454 0
1600 -455 0
-1600 455 0
-1601 -456 0
1601 456 0
1470 -457 0
-1470 457 0
1602 -458 0
-1602 458 0
1472 -459 0
-1472 459 0
1603 -460 0
-1603 460 0
-1604 -461 0
1604 461 0
-1605 -462 0
1605 462 0
1476 -463 0
-1476 463 0
1606 -464 0
-1606 464 0
1478 -465 0
-1478 465 0
1607 -466 0
-1607 466 0
-1608 -467 0
1608 467 0
1481 -468 0
-1481 468 0
1609 -469 0
-1609 469 0
1610 -471 0
-1610 471 0
1611 -472 0
-1611 472 0
-1612 -473 0
1612 473 0
-1613 -474 0
1613 474 0
-1614 -475 0
1614 475 0
-1615 -476 0
1615 476 0
-1616 -477 0
1616 477 0
1418 -479 0
-1418 479 0
479 0
-479 315 478 0
-315 311 -314 0
-311 308 -310 0
-308 303 -307 0
-303 300 -302 0
-300 290 -299 0
-290 274 -289 0
-274 271 -273 0
-271 252 -270 0
-252 248 -251 0
-248 245 -247 0
-245 240 -244 0
-240 234 -239 0
-234 228 -233 0
-228 222 -227 0
-222 218 -221 0
-218 214 -217 0
-214 210 -213 0
-210 206 -209 0
-206 202 -205 0
-202 198 -201 0
-198 194 -197 0
-194 191 -193 0
-191 187 -190 0
-187 183 -186 0
-183 179 -182 0
-179 175 -178 0
-175 171 -174 0
-171 167 -170 0
-167 163 -166 0
-163 159 -162 0
-159 155 -158 0
-155 150 -154 0
-150 146 -149 0
-146 142 -145 0
-142 138 -141 0
-138 134 -137 0
-134 131 -133 0
-131 128 -130 0
-128 124 -127 0
-124 121 -123 0
-121 118 -120 0
-118 115 -117 0
-115 111 -114 0
-111 107 -110 0
-107 103 -106 0
-103 99 -102 0
-99 95 -98 0
-95 91 -94 0
-91 87 -90 0
-87 83 -86 0
-83 79 -82 0
-79 75 -78 0
-75 71 -74 0
-71 67 -70 0
-67 63 -66 0
-63 59 -62 0
-59 55 -58 0
-55 51 -54 0
-51 47 -50 0
-47 43 -46 0
-43 39 -42 0
-39 35 -38 0
-35 31 -34 0
-31 27 -30 0
-27 23 -26 0
-23 19 -22 0
-19 15 -18 0
-15 11 -14 0
-11 7 -10 0
-7 -3 -6 0
1 -2 3 0
-1 2 3 0
4 -5 6 0
-4 5 6 0
8 -9 10 0
-8 9 10 0
12 13 14 0
-12 -13 14 0
-4 -8 13 0
-13 4 0
-13 8 0
16 -17 18 0
-16 17 18 0
20 -21 22 0
-20 21 22 0
24 25 26 0
-24 -25 26 0
-16 -20 25 0
-25 16 0
-25 20 0
28 29 30 0
-28 -29 30 0
-12 -24 29 0
-29 12 0
-29 24 0
32 33 34 0
-32 -33 34 0
-5 -8 33 0
-33 5 0
-33 8 0
36 37 38 0
-36 -37 38 0
-32 -24 37 0
-37 32 0
-37 24 0
40 41 42 0
-40 -41 42 0
-4 -9 41 0
-41 4 0
-41 9 0
44 45 46 0
-44 -45 46 0
-40 -24 45 0
-45 40 0
-45 24 0
48 49 50 0
-48 -49 50 0
-5 -9 49 0
-49 5 0
-49 9 0
52 53 54 0
-52 -53 54 0
-48 -24 53 0
-53 48 0
-53 24 0
56 57 58 0
-56 -57 58 0
-17 -20 57 0
-57 17 0
-57 20 0
60 61 62 0
-60 -61 62 0
-12 -56 61 0
-61 12 0
-61 56 0
64 65 66 0
-64 -65 66 0
-32 -56 65 0
-65 32 0
-65 56 0
68 69 70 0
-68 -69 70 0
-40 -56 69 0
-69 40 0
-69 56 0
72 73 74 0
-72 -73 74 0
-48 -56 73 0
-73 48 0
-73 56 0
76 77 78 0
-76 -77 78 0
-16 -21 77 0
-77 16 0
-77 21 0
80 81 82 0
-80 -81 82 0
-12 -76 81 0
-81 12 0
-81 76 0
84 85 86 0
-84 -85 86 0
-32 -76 85 0
-85 32 0
-85 76 0
88 89 90 0
-88 -89 90 0
-40 -76 89 0
-89 40 0
-89 76 0
92 93 94 0
-92 -93 94 0
-48 -76 93 0
-93 48 0
-93 76 0
96 97 98 0
-96 -97 98 0
-17 -21 97 0
-97 17 0
-97 21 0
100 101 102 0
-100 -101 102 0
-12 -96 101 0
-101 12 0
-101 96 0
104 105 106 0
-104 -105 106 0
-32 -96 105 0
-105 32 0
-105 96 0
108 109 110 0
-108 -109 110 0
-40 -96 109 0
-109 40 0
-109 96 0
112 113 114 0
-112 -113 114 0
-48 -96 113 0
-113 48 0
-113 96 0
116 -2 117 0
-116 2 117 0
119 -5 120 0
-119 5 120 0
122 -9 123 0
-122 9 123 0
125 126 127 0
-125 -126 127 0
-119 -122 126 0
-126 119 0
-126 122 0
129 -17 130 0
-129 17 130 0
132 -21 133 0
-132 21 133 0
135 136 137 0
-135 -136 137 0
-129 -132 136 0
-136 129 0
-136 132 0
139 140 141 0
-139 -140 141 0
-125 -135 140 0
-140 125 0
-140 135 0
143 144 145 0
-143 -144 145 0
-5 -122 144 0
-144 5 0
-144 122 0
147 148 149 0
-147 -148 149 0
-143 -135 148 0
-148 143 0
-148 135 0
151 153 154 0
-151 -153 154 0
-152 -135 153 0
-153 152 0
-153 135 0
156 157 158 0
-156 -157 158 0
-5 -9 157 0
-157 5 0
-157 9 0
160 161 162 0
-160 -161 162 0
-156 -135 161 0
-161 156 0
-161 135 0
164 165 166 0
-164 -165 166 0
-17 -132 165 0
-165 17 0
-165 132 0
168 169 170 0
-168 -169 170 0
-125 -164 169 0
-169 125 0
-169 164 0
172 173 174 0
-172 -173 174 0
-143 -164 173 0
-173 143 0
-173 164 0
176 177 178 0
-176 -177 178 0
-152 -164 177 0
-177 152 0
-177 164 0
180 181 182 0
-180 -181 182 0
-156 -164 181 0
-181 156 0
-181 164 0
184 185 186 0
-184 -185 186 0
-129 -21 185 0
-185 129 0
-185 21 0
188 189 190 0
-188 -189 190 0
-125 -184 189 0
-189 125 0
-189 184 0
192 129 193 0
-192 -129 193 0
195 196 197 0
-195 -196 197 0
-152 -184 196 0
-196 152 0
-196 184 0
199 200 201 0
-199 -200 201 0
-156 -184 200 0
-200 156 0
-200 184 0
203 204 205 0
-203 -204 205 0
-17 -21 204 0
-204 17 0
-204 21 0
207 208 209 0
-207 -208 209 0
-125 -203 208 0
-208 125 0
-208 203 0
211 212 213 0
-211 -212 213 0
-143 -203 212 0
-212 143 0
-212 203 0
215 216 217 0
-215 -216 217 0
-152 -203 216 0
-216 152 0
-216 203 0
219 220 221 0
-219 -220 221 0
-156 -203 220 0
-220 156 0
-220 203 0
223 226 227 0
-223 -226 227 0
-225 -172 226 0
-2 -224 225 0
-226 225 0
-226 172 0
-225 2 0
-225 224 0
229 232 233 0
-229 -232 233 0
-231 -176 232 0
-2 -230 231 0
-232 231 0
-232 176 0
-231 2 0
-231 230 0
235 238 239 0
-235 -238 239 0
-237 -180 238 0
-2 -236 237 0
-238 237 0
-238 180 0
-237 2 0
-237 236 0
241 243 244 0
-241 -243 244 0
-2 -242 243 0
-243 2 0
-243 242 0
246 168 247 0
-246 -168 247 0
249 250 251 0
-249 -250 251 0
253 269 270 0
-253 -269 270 0
-261 268 269 0
261 -268 269 0
-261 -268 269 0
-256 260 261 0
256 -260 261 0
-256 -260 261 0
-255 -188 256 0
-2 -254 255 0
-258 -259 260 0
-2 -257 258 0
-264 267 268 0
264 -267 268 0
-264 -267 268 0
-263 -195 264 0
-2 -262 263 0
-266 -199 267 0
-2 -265 266 0
-269 261 268 0
-261 256 260 0
-256 255 0
-256 188 0
-255 2 0
-255 254 0
-260 258 0
-260 259 0
-258 2 0
-258 257 0
-268 264 267 0
-264 263 0
-264 195 0
-263 2 0
-263 262 0
-267 266 0
-267 199 0
-266 2 0
-266 265 0
272 203 273 0
-272 -203 273 0
275 288 289 0
-275 -288 289 0
-282 287 288 0
282 -287 288 0
-282 -287 288 0
-278 281 282 0
278 -281 282 0
-278 -281 282 0
-277 -207 278 0
-2 -276 277 0
-280 -211 281 0
-2 -279 280 0
-285 286 287 0
285 -286 287 0
-285 -286 287 0
-284 -215 285 0
-2 -283 284 0
-288 282 287 0
-282 278 281 0
-278 277 0
-278 207 0
-277 2 0
-277 276 0
-281 280 0
-281 211 0
-280 2 0
-280 279 0
-287 285 286 0
-285 284 0
-285 215 0
-284 2 0
-284 283 0
291 298 299 0
-291 -298 299 0
-294 297 298 0
294 -297 298 0
-294 -297 298 0
-293 -139 294 0
-2 -292 293 0
-296 -147 297 0
-2 -295 296 0
-298 294 297 0
-294 293 0
-294 139 0
-293 2 0
-293 292 0
-297 296 0
-297 147 0
-296 2 0
-296 295 0
301 151 302 0
-301 -151 302 0
304 306 307 0
-304 -306 307 0
-2 -305 306 0
-306 2 0
-306 305 0
309 160 310 0
-309 -160 310 0
312 313 314 0
-312 -313 314 0
-478 -380 477 0
-478 380 -477 0
-380 378 379 0
-378 346 377 0
-346 330 345 0
-330 322 329 0
-322 318 321 0
-318 317 0
-318 139 0
-317 116 0
-317 316 0
-321 320 0
-321 147 0
-320 116 0
-320 319 0
-329 325 328 0
-325 324 0
-325 151 0
-324 116 0
-324 323 0
-328 327 0
-328 160 0
-327 116 0
-327 326 0
-345 337 344 0
-337 333 336 0
-333 332 0
-333 168 0
-332 116 0
-332 331 0
-336 335 0
-336 172 0
-335 116 0
-335 334 0
-344 340 343 0
-340 339 0
-340 176 0
-339 116 0
-339 338 0
-343 342 0
-343 180 0
-342 116 0
-342 341 0
-377 361 376 0
-361 353 360 0
-353 349 352 0
-349 348 0
-349 188 0
-348 116 0
-348 347 0
-352 351 259 0
-351 116 0
-351 350 0
-360 356 359 0
-356 355 0
-356 195 0
-355 116 0
-355 354 0
-359 358 0
-359 199 0
-358 116 0
-358 357 0
-376 368 375 0
-368 364 367 0
-364 363 0
-364 207 0
-363 116 0
-363 362 0
-367 366 0
-367 211 0
-366 116 0
-366 365 0
-375 371 374 0
-371 370 0
-371 215 0
-370 116 0
-370 369 0
-374 373 0
-374 219 0
-373 116 0
-373 372 0
-477 427 476 0
-427 403 426 0
-403 391 402 0
-391 385 390 0
-385 382 384 0
-382 381 0
-382 28 0
-381 1 0
-381 316 0
-384 383 0
-384 36 0
-383 1 0
-383 319 0
-390 387 389 0
-387 386 0
-387 44 0
-386 1 0
-386 323 0
-389 388 0
-389 52 0
-388 1 0
-388 326 0
-402 396 401 0
-396 393 395 0
-393 392 0
-393 60 0
-392 1 0
-392 331 0
-395 394 0
-395 64 0
-394 1 0
-394 334 0
-401 398 400 0
-398 397 0
-398 68 0
-397 1 0
-397 338 0
-400 399 0
-400 72 0
-399 1 0
-399 341 0
-426 414 425 0
-414 408 413 0
-408 405 407 0
-405 404 0
-405 80 0
-404 1 0
-404 347 0
-407 406 0
-407 84 0
-406 1 0
-406 350 0
-413 410 412 0
-410 409 0
-410 88 0
-409 1 0
-409 354 0
-412 411 0
-412 92 0
-411 1 0
-411 357 0
-425 419 424 0
-419 416 418 0
-416 415 0
-416 100 0
-415 1 0
-415 362 0
-418 417 0
-418 104 0
-417 1 0
-417 365 0
-424 421 423 0
-421 420 0
-421 108 0
-420 1 0
-420 369 0
-423 422 0
-423 112 0
-422 1 0
-422 372 0
-476 451 475 0
-451 439 450 0
-439 432 438 0
-432 429 431 0
-429 428 0
-429 28 0
-428 2 0
-428 292 0
-431 430 0
-431 36 0
-430 2 0
-430 295 0
-438 435 437 0
-435 434 0
-435 44 0
-434 2 0
-434 433 0
-437 436 0
-437 52 0
-436 2 0
-436 305 0
-450 444 449 0
-444 441 443 0
-441 440 0
-441 60 0
-440 2 0
-440 242 0
-443 442 0
-443 64 0
-442 2 0
-442 224 0
-449 446 448 0
-446 445 0
-446 68 0
-445 2 0
-445 230 0
-448 447 0
-448 72 0
-447 2 0
-447 236 0
-475 462 474 0
-462 456 461 0
-456 453 455 0
-453 452 0
-453 80 0
-452 2 0
-452 254 0
-455 454 0
-455 84 0
-454 2 0
-454 257 0
-461 458 460 0
-458 457 0
-458 88 0
-457 2 0
-457 262 0
-460 459 0
-460 92 0
-459 2 0
-459 265 0
-474 467 473 0
-467 464 466 0
-464 463 0
-464 100 0
-463 2 0
-463 276 0
-466 465 0
-466 104 0
-465 2 0
-465 279 0
-473 469 472 0
-469 468 0
-469 108 0
-468 2 0
-468 283 0
-472 471 0
-472 112 0
-471 2 0
-471 470 0
-378 379 380 0
378 -379 380 0
-378 -379 380 0
-346 377 378 0
346 -377 378 0
-346 -377 378 0
-330 345 346 0
330 -345 346 0
-330 -345 346 0
-322 329 330 0
322 -329 330 0
-322 -329 330 0
-318 321 322 0
318 -321 322 0
-318 -321 322 0
-317 -139 318 0
-116 -316 317 0
-320 -147 321 0
-116 -319 320 0
-325 328 329 0
325 -328 329 0
-325 -328 329 0
-324 -151 325 0
-116 -323 324 0
-327 -160 328 0
-116 -326 327 0
-337 344 345 0
337 -344 345 0
-337 -344 345 0
-333 336 337 0
333 -336 337 0
-333 -336 337 0
-332 -168 333 0
-116 -331 332 0
-335 -172 336 0
-116 -334 335 0
-340 343 344 0
340 -343 344 0
-340 -343 344 0
-339 -176 340 0
-116 -338 339 0
-342 -180 343 0
-116 -341 342 0
-361 376 377 0
361 -376 377 0
-361 -376 377 0
-353 360 361 0
353 -360 361 0
-353 -360 361 0
-349 352 353 0
349 -352 353 0
-349 -352 353 0
-348 -188 349 0
-116 -347 348 0
-351 259 352 0
351 -259 352 0
-351 -259 352 0
-116 -350 351 0
-356 359 360 0
356 -359 360 0
-356 -359 360 0
-355 -195 356 0
-116 -354 355 0
-358 -199 359 0
-116 -357 358 0
-368 375 376 0
368 -375 376 0
-368 -375 376 0
-364 367 368 0
364 -367 368 0
-364 -367 368 0
-363 -207 364 0
-116 -362 363 0
-366 -211 367 0
-116 -365 366 0
-371 374 375 0
371 -374 375 0
-371 -374 375 0
-370 -215 371 0
-116 -369 370 0
-373 -219 374 0
-116 -372 373 0
-427 476 477 0
427 -476 477 0
-427 -476 477 0
-403 426 427 0
403 -426 427 0
-403 -426 427 0
-391 402 403 0
391 -402 403 0
-391 -402 403 0
-385 390 391 0
385 -390 391 0
-385 -390 391 0
-382 384 385 0
382 -384 385 0
-382 -384 385 0
-381 -28 382 0
-1 -316 381 0
-383 -36 384 0
-1 -319 383 0
-387 389 390 0
387 -389 390 0
-387 -389 390 0
-386 -44 387 0
-1 -323 386 0
-388 -52 389 0
-1 -326 388 0
-396 401 402 0
396 -401 402 0
-396 -401 402 0
-393 395 396 0
393 -395 396 0
-393 -395 396 0
-392 -60 393 0
-1 -331 392 0
-394 -64 395 0
-1 -334 394 0
-398 400 401 0
398 -400 401 0
-398 -400 401 0
-397 -68 398 0
-1 -338 397 0
-399 -72 400 0
-1 -341 399 0
-414 425 426 0
414 -425 426 0
-414 -425 426 0
-408 413 414 0
408 -413 414 0
-408 -413 414 0
-405 407 408 0
405 -407 408 0
-405 -407 408 0
-404 -80 405 0
-1 -347 404 0
-406 -84 407 0
-1 -350 406 0
-410 412 413 0
410 -412 413 0
-410 -412 413 0
-409 -88 410 0
-1 -354 409 0
-411 -92 412 0
-1 -357 411 0
-419 424 425 0
419 -424 425 0
-419 -424 425 0
-416 418 419 0
416 -418 419 0
-416 -418 419 0
-415 -100 416 0
-1 -362 415 0
-417 -104 418 0
-1 -365 417 0
-421 423 424 0
421 -423 424 0
-421 -423 424 0
-420 -108 421 0
-1 -369 420 0
-422 -112 423 0
-1 -372 422 0
-451 475 476 0
451 -475 476 0
-451 -475 476 0
-439 450 451 0
439 -450 451 0
-439 -450 451 0
-432 438 439 0
432 -438 439 0
-432 -438 439 0
-429 431 432 0
429 -431 432 0
-429 -431 432 0
-428 -28 429 0
-2 -292 428 0
-430 -36 431 0
-2 -295 430 0
-435 437 438 0
435 -437 438 0
-435 -437 438 0
-434 -44 435 0
-2 -433 434 0
-436 -52 437 0
-2 -305 436 0
-444 449 450 0
444 -449 450 0
-444 -449 450 0
-441 443 444 0
441 -443 444 0
-441 -443 444 0
-440 -60 441 0
-2 -242 440 0
-442 -64 443 0
-2 -224 442 0
-446 448 449 0
446 -448 449 0
-446 -448 449 0
-445 -68 446 0
-2 -230 445 0
-447 -72 448 0
-2 -236 447 0
-462 474 475 0
462 -474 475 0
-462 -474 475 0
-456 461 462 0
456 -461 462 0
-456 -461 462 0
-453 455 456 0
453 -455 456 0
-453 -455 456 0
-452 -80 453 0
-2 -254 452 0
-454 -84 455 0
-2 -257 454 0
-458 460 461 0
458 -460 461 0
-458 -460 461 0
-457 -88 458 0
-2 -262 457 0
-459 -92 460 0
-2 -265 459 0
-467 473 474 0
467 -473 474 0
-467 -473 474 0
-464 466 467 0
464 -466 467 0
-464 -466 467 0
-463 -100 464 0
-2 -276 463 0
-465 -104 466 0
-2 -279 465 0
-469 472 473 0
469 -472 473 0
-469 -472 473 0
-468 -108 469 0
-2 -283 468 0
-471 -112 472 0
-2 -470 471 0
1418 0
4 -1419 0
8 -1419 0
-4 -8 1419 0
20 -1420 0
16 -1420 0
-20 -16 1420 0
24 -1421 0
12 -1421 0
-24 -12 1421 0
8 -1422 0
5 -1422 0
-8 -5 1422 0
32 -1423 0
24 -1423 0
-32 -24 1423 0
4 -1424 0
9 -1424 0
-4 -9 1424 0
40 -1425 0
24 -1425 0
-40 -24 1425 0
5 -1426 0
9 -1426 0
-5 -9 1426 0
48 -1427 0
24 -1427 0
-48 -24 1427 0
20 -1428 0
17 -1428 0
-20 -17 1428 0
56 -1429 0
12 -1429 0
-56 -12 1429 0
56 -1430 0
32 -1430 0
-56 -32 1430 0
56 -1431 0
40 -1431 0
-56 -40 1431 0
56 -1432 0
48 -1432 0
-56 -48 1432 0
16 -1433 0
21 -1433 0
-16 -21 1433 0
12 -1434 0
76 -1434 0
-12 -76 1434 0
32 -1435 0
76 -1435 0
-32 -76 1435 0
40 -1436 0
76 -1436 0
-40 -76 1436 0
48 -1437 0
76 -1437 0
-48 -76 1437 0
21 -1438 0
17 -1438 0
-21 -17 1438 0
12 -1439 0
96 -1439 0
-12 -96 1439 0
32 -1440 0
96 -1440 0
-32 -96 1440 0
40 -1441 0
96 -1441 0
-40 -96 1441 0
48 -1442 0
96 -1442 0
-48 -96 1442 0
122 -1443 0
119 -1443 0
-122 -119 1443 0
129 -1444 0
132 -1444 0
-129 -132 1444 0
135 -1445 0
125 -1445 0
-135 -125 1445 0
5 -1446 0
122 -1446 0
-5 -122 1446 0
135 -1447 0
143 -1447 0
-135 -143 1447 0
156 -1448 0
135 -1448 0
-156 -135 1448 0
17 -1449 0
132 -1449 0
-17 -132 1449 0
164 -1450 0
125 -1450 0
-164 -125 1450 0
164 -1451 0
143 -1451 0
-164 -143 1451 0
164 -1452 0
156 -1452 0
-164 -156 1452 0
21 -1453 0
129 -1453 0
-21 -129 1453 0
184 -1454 0
125 -1454 0
-184 -125 1454 0
184 -1455 0
156 -1455 0
-184 -156 1455 0
203 -1456 0
125 -1456 0
-203 -125 1456 0
203 -1457 0
143 -1457 0
-203 -143 1457 0
156 -1458 0
203 -1458 0
-156 -203 1458 0
224 -1459 0
2 -1459 0
-224 -2 1459 0
172 -1460 0
225 -1460 0
-172 -225 1460 0
230 -1461 0
2 -1461 0
-230 -2 1461 0
176 -1462 0
231 -1462 0
-176 -231 1462 0
236 -1463 0
2 -1463 0
-236 -2 1463 0
180 -1464 0
237 -1464 0
-180 -237 1464 0
242 -1465 0
2 -1465 0
-242 -2 1465 0
254 -1466 0
2 -1466 0
-254 -2 1466 0
188 -1467 0
255 -1467 0
-188 -255 1467 0
257 -1468 0
2 -1468 0
-257 -2 1468 0
-256 -1469 0
-260 -1469 0
256 260 1469 0
262 -1470 0
2 -1470 0
-262 -2 1470 0
195 -1471 0
263 -1471 0
-195 -263 1471 0
265 -1472 0
2 -1472 0
-265 -2 1472 0
199 -1473 0
266 -1473 0
-199 -266 1473 0
-264 -1474 0
-267 -1474 0
264 267 1474 0
-261 -1475 0
1474 -1475 0
261 -1474 1475 0
276 -1476 0
2 -1476 0
-276 -2 1476 0
207 -1477 0
277 -1477 0
-207 -277 1477 0
279 -1478 0
2 -1478 0
-279 -2 1478 0
211 -1479 0
280 -1479 0
-211 -280 1479 0
-278 -1480 0
-281 -1480 0
278 281 1480 0
283 -1481 0
2 -1481 0
-283 -2 1481 0
215 -1482 0
284 -1482 0
-215 -284 1482 0
-282 -1483 0
-287 -1483 0
282 287 1483 0
292 -1484 0
2 -1484 0
-292 -2 1484 0
139 -1485 0
293 -1485 0
-139 -293 1485 0
295 -1486 0
2 -1486 0
-295 -2 1486 0
147 -1487 0
296 -1487 0
-147 -296 1487 0
-294 -1488 0
-297 -1488 0
294 297 1488 0
305 -1489 0
2 -1489 0
-305 -2 1489 0
316 -1490 0
116 -1490 0
-316 -116 1490 0
139 -1491 0
317 -1491 0
-139 -317 1491 0
319 -1492 0
116 -1492 0
-319 -116 1492 0
147 -1493 0
320 -1493 0
-147 -320 1493 0
-318 -1494 0
-321 -1494 0
318 321 1494 0
323 -1495 0
116 -1495 0
-323 -116 1495 0
151 -1496 0
324 -1496 0
-151 -324 1496 0
326 -1497 0
116 -1497 0
-326 -116 1497 0
160 -1498 0
327 -1498 0
-160 -327 1498 0
-325 -1499 0
-328 -1499 0
325 328 1499 0
-322 -1500 0
-329 -1500 0
322 329 1500 0
331 -1501 0
116 -1501 0
-331 -116 1501 0
168 -1502 0
332 -1502 0
-168 -332 1502 0
334 -1503 0
116 -1503 0
-334 -116 1503 0
172 -1504 0
335 -1504 0
-172 -335 1504 0
-333 -1505 0
-336 -1505 0
333 336 1505 0
338 -1506 0
116 -1506 0
-338 -116 1506 0
176 -1507 0
339 -1507 0
-176 -339 1507 0
341 -1508 0
116 -1508 0
-341 -116 1508 0
180 -1509 0
342 -1509 0
-180 -342 1509 0
-340 -1510 0
-343 -1510 0
340 343 1510 0
-337 -1511 0
-344 -1511 0
337 344 1511 0
-330 -1512 0
1511 -1512 0
330 -1511 1512 0
347 -1513 0
116 -1513 0
-347 -116 1513 0
188 -1514 0
348 -1514 0
-188 -348 1514 0
350 -1515 0
116 -1515 0
-350 -116 1515 0
-349 -1516 0
-352 -1516 0
349 352 1516 0
354 -1517 0
116 -1517 0
-354 -116 1517 0
195 -1518 0
355 -1518 0
-195 -355 1518 0
357 -1519 0
116 -1519 0
-357 -116 1519 0
199 -1520 0
358 -1520 0
-199 -358 1520 0
-356 -1521 0
-359 -1521 0
356 359 1521 0
-353 -1522 0
-360 -1522 0
353 360 1522 0
362 -1523 0
116 -1523 0
-362 -116 1523 0
207 -1524 0
363 -1524 0
-207 -363 1524 0
365 -1525 0
116 -1525 0
-365 -116 1525 0
211 -1526 0
366 -1526 0
-211 -366 1526 0
-364 -1527 0
-367 -1527 0
364 367 1527 0
369 -1528 0
116 -1528 0
-369 -116 1528 0
215 -1529 0
370 -1529 0
-215 -370 1529 0
372 -1530 0
116 -1530 0
-372 -116 1530 0
219 -1531 0
373 -1531 0
-219 -373 1531 0
-371 -1532 0
-374 -1532 0
371 374 1532 0
-368 -1533 0
-375 -1533 0
368 375 1533 0
-361 -1534 0
-376 -1534 0
361 376 1534 0
-346 -1535 0
1534 -1535 0
346 -1534 1535 0
1 -1536 0
316 -1536 0
-1 -316 1536 0
28 -1537 0
381 -1537 0
-28 -381 1537 0
1 -1538 0
319 -1538 0
-1 -319 1538 0
36 -1539 0
383 -1539 0
-36 -383 1539 0
-382 -1540 0
-384 -1540 0
382 384 1540 0
1 -1541 0
323 -1541 0
-1 -323 1541 0
44 -1542 0
386 -1542 0
-44 -386 1542 0
1 -1543 0
326 -1543 0
-1 -326 1543 0
52 -1544 0
388 -1544 0
-52 -388 1544 0
-387 -1545 0
-389 -1545 0
387 389 1545 0
-385 -1546 0
-390 -1546 0
385 390 1546 0
1 -1547 0
331 -1547 0
-1 -331 1547 0
60 -1548 0
392 -1548 0
-60 -392 1548 0
1 -1549 0
334 -1549 0
-1 -334 1549 0
64 -1550 0
394 -1550 0
-64 -394 1550 0
-393 -1551 0
-395 -1551 0
393 395 1551 0
1 -1552 0
338 -1552 0
-1 -338 1552 0
68 -1553 0
397 -1553 0
-68 -397 1553 0
1 -1554 0
341 -1554 0
-1 -341 1554 0
72 -1555 0
399 -1555 0
-72 -399 1555 0
-398 -1556 0
-400 -1556 0
398 400 1556 0
-396 -1557 0
-401 -1557 0
396 401 1557 0
-391 -1558 0
1557 -1558 0
391 -1557 1558 0
1 -1559 0
347 -1559 0
-1 -347 1559 0
80 -1560 0
404 -1560 0
-80 -404 1560 0
350 -1561 0
1 -1561 0
-350 -1 1561 0
84 -1562 0
406 -1562 0
-84 -406 1562 0
-405 -1563 0
-407 -1563 0
405 407 1563 0
354 -1564 0
1 -1564 0
-354 -1 1564 0
88 -1565 0
409 -1565 0
-88 -409 1565 0
357 -1566 0
1 -1566 0
-357 -1 1566 0
92 -1567 0
411 -1567 0
-92 -411 1567 0
-410 -1568 0
-412 -1568 0
410 412 1568 0
-408 -1569 0
-413 -1569 0
408 413 1569 0
362 -1570 0
1 -1570 0
-362 -1 1570 0
100 -1571 0
415 -1571 0
-100 -415 1571 0
365 -1572 0
1 -1572 0
-365 -1 1572 0
104 -1573 0
417 -1573 0
-104 -417 1573 0
-416 -1574 0
-418 -1574 0
416 418 1574 0
369 -1575 0
1 -1575 0
-369 -1 1575 0
108 -1576 0
420 -1576 0
-108 -420 1576 0
372 -1577 0
1 -1577 0
-372 -1 1577 0
112 -1578 0
422 -1578 0
-112 -422 1578 0
-421 -1579 0
-423 -1579 0
421 423 1579 0
-419 -1580 0
-424 -1580 0
419 424 1580 0
-414 -1581 0
-425 -1581 0
414 425 1581 0
-403 -1582 0
1581 -1582 0
403 -1581 1582 0
28 -1583 0
428 -1583 0
-28 -428 1583 0
36 -1584 0
430 -1584 0
-36 -430 1584 0
-429 -1585 0
-431 -1585 0
429 431 1585 0
433 -1586 0
2 -1586 0
-433 -2 1586 0
44 -1587 0
434 -1587 0
-44 -434 1587 0
52 -1588 0
436 -1588 0
-52 -436 1588 0
-435 -1589 0
-437 -1589 0
435 437 1589 0
-432 -1590 0
-438 -1590 0
432 438 1590 0
60 -1591 0
440 -1591 0
-60 -440 1591 0
64 -1592 0
442 -1592 0
-64 -442 1592 0
-441 -1593 0
-443 -1593 0
441 443 1593 0
68 -1594 0
445 -1594 0
-68 -445 1594 0
72 -1595 0
447 -1595 0
-72 -447 1595 0
-446 -1596 0
-448 -1596 0
446 448 1596 0
-444 -1597 0
-449 -1597 0
444 449 1597 0
-439 -1598 0
-450 -1598 0
439 450 1598 0
80 -1599 0
452 -1599 0
-80 -452 1599 0
84 -1600 0
454 -1600 0
-84 -454 1600 0
-453 -1601 0
-455 -1601 0
453 455 1601 0
88 -1602 0
457 -1602 0
-88 -457 1602 0
92 -1603 0
459 -1603 0
-92 -459 1603 0
-458 -1604 0
-460 -1604 0
458 460 1604 0
-456 -1605 0
-461 -1605 0
456 461 1605 0
100 -1606 0
463 -1606 0
-100 -463 1606 0
104 -1607 0
465 -1607 0
-104 -465 1607 0
-464 -1608 0
-466 -1608 0
464 466 1608 0
108 -1609 0
468 -1609 0
-108 -468 1609 0
470 -1610 0
2 -1610 0
-470 -2 1610 0
112 -1611 0
471 -1611 0
-112 -471 1611 0
-469 -1612 0
-472 -1612 0
469 472 1612 0
-467 -1613 0
-473 -1613 0
467 473 1613 0
-462 -1614 0
-474 -1614 0
462 474 1614 0
-451 -1615 0
-475 -1615 0
451 475 1615 0
-427 -1616 0
1615 -1616 0
427 -1615 1616 0
